fcc Ag
4.09
0.5     0.5     0
0       0.5     0.5
0.5     0       0.5
Ag
1
Direct
0       0       0
