Mo2 S4                                  
   1.00000000000000     
     3.1903160000000002    0.0000000000000000    0.0000000000000000
    -1.5951580000000001    2.7628940000000002    0.0000000000000000
     0.0000000000000000    0.0000000000000000   29.7579999999999991
   Mo   S 
     1     2
Direct
  0.3333330000000032  0.6666669999999968  0.1250000000000000
  0.6666669999999968  0.3333330000000032  0.1775870000000026
  0.6666669999999968  0.3333330000000032  0.0724129999999974
 
  0.00000000E+00  0.00000000E+00  0.00000000E+00
  0.00000000E+00  0.00000000E+00  0.00000000E+00
  0.00000000E+00  0.00000000E+00  0.00000000E+00
