System = monolayer MoS2
EDIFF = 1E-6
ISMEAR = -5
LWAVE = F
