Mo2 S4
1.0
3.190316 0.000000 0.000000
-1.595158 2.762894 0.000000
0.000000 0.000000  29.758
Mo S
1 2
direct
0.333333 0.666667 0.125000 Mo
0.666667 0.333333 0.177587 S
0.666667 0.333333 0.072413 S
