K-points 
40
Line-mode
Cartesian
0       0       0       Γ
0       0       1       X

0       0       1       X
0.5     0       1       W

0.5     0       1       W
0.75    0.75    0       K

0.75    0.75    0       K
0       0       0       Γ

0       0       0       Γ
0.5     0.5     0.5     L
