Ge                                      
5.77
0.0 0.5 0.5
0.5 0.0 0.5
0.5 0.5 0.0
Ge
2
Direct
0.00 0.00 0.00
0.25 0.25 0.25
