System = monolayer MoS2
EDIFF = 1E-6
ICHARG = 11
LCHARG = F
LWAVE = F
