System = Si
LOPTICS = T
ISMEAR = -4
SCISSOR = 1.0762
