System = graphite
RWIGS = 0.863
LOPTICS = T
ISMEAR = -4
