sic16 Nb
3.3008
2       0       0
0       2       0
0       0       2
Nb
16
Direct
0       0       0
0.25    0.25    0.25
0.5     0       0
0.75    0.25    0.25
0       0.5     0
0.25    0.75    0.25
0       0       0.5
0.25    0.25    0.75
0.5     0.5     0
0.75    0.75    0.25
0       0.5     0.5
0.25    0.75    0.75
0.5     0       0.5
0.75    0.25    0.75
0.5     0.5     0.5
0.75    0.75    0.75
