GaAs                                    
   5.75000000000000     
    -0.0000000000000000    0.5002468555033105    0.5002468555033105
     0.5002468555033105    0.0000000000000000    0.5002468555033105
     0.5002468555033105    0.5002468555033105    0.0000000000000000
   Ga   As
     1     1
Direct
  0.0000000000000000  0.0000000000000000  0.0000000000000000
  0.2500000000000000  0.2500000000000000  0.2500000000000000
 
  0.00000000E+00  0.00000000E+00  0.00000000E+00
  0.00000000E+00  0.00000000E+00  0.00000000E+00
