Al fcc
4.05
0.5     0.5     0
0       0.5     0.5
0.5     0       0.5
Al
1
Direct
0       0       0
