K-points 
 40
Line-mode
reciprocal
0.0000000000    0.0000000000    0.0000000000 !gamma
0.5000000000    0.0000000000    0.5000000000 !X

0.5000000000    0.0000000000    0.5000000000 !X
0.6250000000    0.2500000000    0.6250000000 !U

0.6250000000    0.2500000000    0.6250000000 !U
0.0000000000    0.0000000000    0.0000000000 !gamma

0.0000000000    0.0000000000    0.0000000000 !gamma
0.5000000000    0.5000000000    0.5000000000 !L

0.5000000000    0.5000000000    0.5000000000 !L
0.5000000000    0.2500000000    0.7500000000 !W

0.5000000000    0.2500000000    0.7500000000 !W
0.5000000000    0.0000000000    0.5000000000 !X
