System = Si
LOPTICS = T
ICHARG = 11
LCHARG = .FALSE.
ISMEAR = 0
