graphene                                       
2.46
0.866       -0.5        0
0.866       0.5         0
0           0           20
C 
2
Direct
0           0           0
0.6667      0.6667      0
