Si                                      
   5.40000000000000     
    -0.0000000000000000    0.5059264538675030    0.5059264538675030
     0.5059264538675030    0.0000000000000000    0.5059264538675030
     0.5059264538675030    0.5059264538675030    0.0000000000000000
   Si
     2
Direct
 -0.0000000000000000 -0.0000000000000000 -0.0000000000000000
  0.2500000000000000  0.2500000000000000  0.2500000000000000
 
  0.00000000E+00  0.00000000E+00  0.00000000E+00
  0.00000000E+00  0.00000000E+00  0.00000000E+00
