System = Si
EDIFF = 1E-6
IBRION = 2
ISIF = 3
NSW = 50
LWAVE = F
