Na                                      
   4.15000000000000     
    -0.5000000000000000    0.5000000000000000    0.5000000000000000
     0.5000000000000000   -0.5000000000000000    0.5000000000000000
     0.5000000000000000    0.5000000000000000   -0.5000000000000000
   Na
     1
Direct
  0.0000000000000000  0.0000000000000000  0.0000000000000000
 
  0.00000000E+00  0.00000000E+00  0.00000000E+00
