Na
4.15
-0.5     0.5     0.5
 0.5    -0.5     0.5
 0.5     0.5    -0.5
Na
1
Direct
0 0 0 Na
