Na                                      
   4.04000000000000     
    -0.5006584882799249    0.5006584882799249    0.5006584882799249
     0.5006584882799249   -0.5006584882799249    0.5006584882799249
     0.5006584882799249    0.5006584882799249   -0.5006584882799249
   Na
     1
Direct
  0.0000000000000000 -0.0000000000000000  0.0000000000000000
 
  0.00000000E+00  0.00000000E+00  0.00000000E+00
