Na
4.04
-0.5     0.5     0.5
 0.5    -0.5     0.5
 0.5     0.5    -0.5
Na
1
direct
0.000000 0.000000 0.000000 Na
