System = single layer MoS2
EDIFF = 1E-6
LWAVE = F
ISMEAR = 0
