MoS2 monolayer
1.0
3.190316 0.000000 0.000000
-1.595158 2.762894 0.000000
0.000000 0.000000 30
Mo S
1 2
direct
0.333333 0.666667 0.250000 Mo
0.666667 0.333333 0.355174 S
0.333333 0.666667 0.855174 S
