Gamma 20*20*4
0
Gamma
20  20  4
0   0   0
