BCC W 5-layers                                                                  
3.16
    1    0    0
    0    1    0
    0    0    6
W                                                                            
5
Direct                                                                          
    0       0       0.0
    0.5     0.5     0.08333333333
    0       0       0.16666666667 
    0.5     0.5     0.25000000000
    0       0       0.33333333333
