Al fcc
4.20
  0.500000000 0.500000000 0.000000000
  0.000000000 0.500000000 0.500000000
  0.500000000 0.000000000 0.500000000
Al
  1
Direct
  0.0000000000000000  0.0000000000000000  0.0000000000000000
