System = graphene (single layer)
ENCUT = 300
EDIFF = 1e-6
ISMEAR = -5
