System = diamond Si
ICHARG = 11
LORBIT = 10
LCHARG = .FALSE.
RWIGS = 1.61626
ISMEAR = -5
LWAVE = F

ENCUT = 500
EDIFF = 1.0E-7
ISTART = 0
