K-Points
0
Monkhorst Pack
30 30 30
0 0 0
