Fe bulk bcc                             
   3.35000000000000     
     0.0000000000000000    0.5008479072652533    0.5008479072652533
     0.5008479072652533   -0.0000000000000000    0.5008479072652533
     0.5008479072652533    0.5008479072652533    0.0000000000000000
   Fe
     1
Direct
 -0.0000000000000000  0.0000000000000000 -0.0000000000000000
 
  0.00000000E+00  0.00000000E+00  0.00000000E+00
