Al fcc                                  
   4.05000000000000     
     0.4996092121467228    0.4996092121467228   -0.0000000000000000
     0.0000000000000000    0.4996092121467228    0.4996092121467228
     0.4996092121467228   -0.0000000000000000    0.4996092121467228
   Al
     1
Direct
  0.0000000000000000 -0.0000000000000000 -0.0000000000000000
 
  0.00000000E+00  0.00000000E+00  0.00000000E+00
