Ge                                      
   5.77000000000000     
     0.0000000000000000    0.5000776653104810    0.5000776653104810
     0.5000776653104810    0.0000000000000000    0.5000776653104810
     0.5000776653104810    0.5000776653104810    0.0000000000000000
   Ge
     2
Direct
  0.0000000000000000  0.0000000000000000  0.0000000000000000
  0.2500000000000000  0.2500000000000000  0.2500000000000000
 
  0.00000000E+00  0.00000000E+00  0.00000000E+00
  0.00000000E+00  0.00000000E+00  0.00000000E+00
