System = Ge
EDIFF = 1E-6
ICHARG = 11
LCHARG = F
LWAVE = F
ISMEAR = -5
LORBIT = 11
