Fe bulk bcc
2.79
   -0.5  0.5  0.5
    0.5 -0.5  0.5
    0.5  0.5 -0.5
Fe
 1
Direct
 0.00000000 0.00000000 0.00000000
