sic2 Nb
3.3008
1       0       0
0       1       0
0       0       1
Nb
2
Direct
0       0       0
0.5     0.5     0.5
