fcc Ni
3.5295
   0.5  0.5  0.0
   0.0  0.5  0.5
   0.5  0.0  0.5
Ni
 1
Direct
 0.00000000 0.00000000 0.00000000
