Fe bulk bcc                             
   2.67000000000000     
    -0.5024095819283253    0.5024095819283253    0.5024095819283253
     0.5024095819283253   -0.5024095819283253    0.5024095819283253
     0.5024095819283253    0.5024095819283253   -0.5024095819283253
   Fe
     1
Direct
  0.0000000000000000  0.0000000000000000  0.0000000000000000
 
  0.00000000E+00  0.00000000E+00  0.00000000E+00
