System = W bcc
RWIGS = 1.455
LOPTICS = T
NBANDS = 20
