System = Au fcc
RWIGS = 1.503
LOPTICS = T
