BCC W 5-layers                                                                  
 2.75999999999999979
     1.0000000000000000    0.0000000000000000    0.0000000000000000
     0.0000000000000000    1.0000000000000000    0.0000000000000000
     0.0000000000000000    0.0000000000000000   50
   W                                                                            
   5
Direct                                                                          
  0.0000000000000000  0.0000000000000000  0.02
  0.5000000000000000  0.5000000000000000  0.01
  0.0000000000000000  0.0000000000000000  0.00
  0.5000000000000000  0.5000000000000000 -0.01
  0.0000000000000000  0.0000000000000000 -0.02
