primitive Nb
3.3008
-0.5    0.5     0.5
 0.5   -0.5     0.5
 0.5    0.5    -0.5
Nb
1
Direct
0       0       0
