GaAs in Zincblend structure
   5.650000
 0.5 0.5 0.0
 0.0 0.5 0.5
 0.5 0.0 0.5
     Ga  As   
      1   1
Direct
0.00   0.00    0.00
0.25   0.25    0.25

