EDIFF = 1E-6
ENCUT = 600 
ISMEAR = -5
ICHARG = 11
LCHARG = .FALSE.
