System = NiO_af2
RWIGS = 1.286 0.820
ISPIN = 2
MAGMOM = 2.0 -2.0 2*0
LORBIT = 11
ISMEAR = -5
ICHARG = 11
LCHARG = .FALSE.
LWAVE = F
