hcp Ru                                  
   2.70590000000000     
     1.0000000000000000    0.0000000000000000    0.0000000000000000
    -0.5000000000000000    0.8660000000000001    0.0000000000000000
     0.0000000000000000    0.0000000000000000    1.5823000000000000
   Ru
     2
Direct
  0.0000000000000000  0.0000000000000000  0.0000000000000000
  0.6666700000000034  0.3333299999999966  0.5000000000000000
 
  0.00000000E+00  0.00000000E+00  0.00000000E+00
  0.00000000E+00  0.00000000E+00  0.00000000E+00
