hcp Ru
2.7059
1       0       0
-0.5    0.866   0
0       0       1.5823
Ru
2
Direct
0       0       0
0.66667 0.33333 0.5
