BCC W 5-layers                          
   3.16000000000000     
     1.0000000000000000    0.0000000000000000    0.0000000000000000
     0.0000000000000000    1.0000000000000000    0.0000000000000000
     0.0000000000000000    0.0000000000000000    5.0000000000000080
   W 
     5
Direct
  0.0000000000000000  0.0000000000000000  0.0000000000000000
  0.5000000000000000  0.5000000000000000  0.1000000000000014
  0.0000000000000000  0.0000000000000000  0.2000000000000028
  0.5000000000000000  0.5000000000000000  0.2999999999999972
  0.0000000000000000  0.0000000000000000  0.3999999999999986
 
  0.00000000E+00  0.00000000E+00  0.00000000E+00
  0.00000000E+00  0.00000000E+00  0.00000000E+00
  0.00000000E+00  0.00000000E+00  0.00000000E+00
  0.00000000E+00  0.00000000E+00  0.00000000E+00
  0.00000000E+00  0.00000000E+00  0.00000000E+00
