EDIFF = 1E-6
ENCUT = 600 
ISMEAR = 0
ICHARG = 11
LCHARG = .FALSE.

SIGMA = 0.05
