BCC W 5-layers                                                                  
3.16
    1.0000000000000000    0.0000000000000000    0.0000000000000000
    0.0000000000000000    1.0000000000000000    0.0000000000000000
    0.0000000000000000    0.0000000000000000    5.0000000000000080
W                                                                            
5
Direct                                                                          
    0.0000000000000000  0.0000000000000000 0.0
    0.5000000000000000  0.5000000000000000 0.1
    0.0000000000000000  0.0000000000000000 0.2 
    0.5000000000000000  0.5000000000000000 0.3
    0.0000000000000000  0.0000000000000000 0.4
