BN hexagonal
2.50
 1.0000000000000000    0.0000000000000000    0.0000000000000000
-0.5000000000000000    0.8660254030000000    0.0000000000000000
 0.0000000000000000    0.0000000000000000    2.6720000000000000
B    N
2    2
Direct
0.0000000000000000  0.0000000000000000  0.0000000000000000 B
0.3333333333333333  0.6666666666666667  0.0000000000000000 B
0.0000000000000000  0.0000000000000000  0.5000000000000000 N
0.3333333333333333  0.6666666666666667  0.5000000000000000 N

0.00000000E+00  0.00000000E+00  0.00000000E+00
0.00000000E+00  0.00000000E+00  0.00000000E+00
0.00000000E+00  0.00000000E+00  0.00000000E+00
0.00000000E+00  0.00000000E+00  0.00000000E+00

