BCC W Bulk
2.76
   -0.50000000  0.50000000  0.50000000
    0.50000000 -0.50000000  0.50000000
    0.50000000  0.50000000 -0.50000000
 W   
 1
direct
 0.00000000 0.00000000 0.00000000
