System = graphene (bilayer)
ENCUT = 600
EDIFF = 1e-6
ICHARG 11
LCHARG = .FALSE.
ISMEAR = 0
