K-path for graphene
100
Line-mode
reciprocal
0       0       0       Gamma
0.33333 0.66667 0       K
 
0.33333 0.66667 0       K
0.5     0       0       M

0.5     0       0       M
0       0       0       Gamma
