bilayer graphene (AB stacking, 3.46A interlayer distance)
2.46
0.866       -0.5        0
0.866       0.5         0
0           0           20
C 
4
Direct
0           0           0
0.6667      0.6667      0
0           0           0.0703252
0.3333      0.3333      0.0703252
