Fe bulk bcc                             
   2.68700000000000     
    -0.4996637896375429    0.4996637896375429    0.4996637896375429
     0.4996637896375429   -0.4996637896375429    0.4996637896375429
     0.4996637896375429    0.4996637896375429   -0.4996637896375429
   Fe
     1
Direct
 -0.0000000000000000  0.0000000000000000 -0.0000000000000000
 
  0.00000000E+00  0.00000000E+00  0.00000000E+00
