30x30x30 Gamma-centered
0
Gamma
30 30 30
0 0 0 
