K-points 
40
Line-mode
reciprocal
0.34375         0               -0.34375        Y
0               0               0               Gamma

0               0               0               Gamma
0.5             0.5             0.5             Z

0.5             0.5             0.5             Z
0.8125          0.34375         0.34375         Ka

0.8125          0.34375         0.34375         Ka
0.1875          -0.34375        -0.34375        U

0.1875          -0.34375        -0.34375        U
-0.1875         -0.65625        -0.65625        Kb
