System=AuAl2
RWIGS=1.503 1.402
LOPTICS=.TRUE.
NBANDS=30

