MnO double fcc cell
4.446
1.0  0.5  0.5
0.5  1.0  0.5
0.5  0.5  1.0
Ni O
2 2
Direct
0.0  0.0  0.0
0.5  0.5  0.5
0.25 0.25  0.25
0.75 0.75  0.75

