c 
1.0
1.22800000 -2.12695839  0.00000000
1.22800000  2.12695839  0.00000000
0.00000000  0.00000000  20.0
2
direct
   0.00000000  0.00000000  0.25000000
   0.33333333  0.66666667  0.25000000
