System = Ge
RWIGS = 1.788
EDIFF = 1E-6
ISMEAR = -5
LWAVE = F
