EDIFF=1E-4
EDIFFG = -0.01
ENCUT = 300 
ISMEAR = -5

IBRION = 2; ISIF=2 ; NSW=15
LVTOT = .TRUE.
