BCC W                             
   2.76000000000000     
     1.0000000000000000    0.0000000000000000    0.0000000000000000
     0.0000000000000000    1.0000000000000000    0.0000000000000000
     0.0000000000000000    0.0000000000000000   10.0000000000000000
   W 
     5
Direct
  0.0000000000000000  0.0000000000000000  0.9513792014369623
  0.5000000000000000  0.5000000000000000  0.0254573892000199
  0.0000000000000000  0.0000000000000000  0.1000000000000014
  0.5000000000000000  0.5000000000000000  0.1745426107999759
  0.0000000000000000  0.0000000000000000  0.2486207985630405
 
  0.00000000E+00  0.00000000E+00  0.00000000E+00
  0.00000000E+00  0.00000000E+00  0.00000000E+00
  0.00000000E+00  0.00000000E+00  0.00000000E+00
  0.00000000E+00  0.00000000E+00  0.00000000E+00
  0.00000000E+00  0.00000000E+00  0.00000000E+00
