System = fcc Ni
RWIGS = 1.37
ICHARG = 11
LCHARG = .FALSE.
ISPIN = 2
MAGMOM = 1
LORBIT = 11
ISMEAR = 1
LWAVE = F

SIGMA = 0.2
EDIFF = 1E-7
ENCUT = 500
ISTART = 0
