EDIFF=1E-6
ENCUT = 300 
ISMEAR = 0
SIGMA= 0.05
LORBIT= 10
LCHARG = .FALSE.
ICHARG = 11
