BCC W 5-layers                                                                  
 2.75999999999999979
     1.0000000000000000    0.0000000000000000    0.0000000000000000
     0.0000000000000000    1.0000000000000000    0.0000000000000000
     0.0000000000000000    0.0000000000000000    7.0000000000000080
   W                                                                            
   5
Direct                                                                          
  0.0000000000000000  0.0000000000000000  0.1428571428571427
  0.5000000000000000  0.5000000000000000  0.0714285714285714
  0.0000000000000000  0.0000000000000000  0.0000000000000000
  0.5000000000000000  0.5000000000000000 -0.0714285714285714
  0.0000000000000000  0.0000000000000000 -0.1428571428571427
