Fe bulk fcc
3.45
    0.0  0.5  0.5
    0.5  0.0  0.5
    0.5  0.5  0.0
Fe
 1
Direct
 0.00000000 0.00000000 0.00000000
