System = Si gaussian
ENCUT = 300
EDIFF = 1e-7
ISMEAR = 0
ICHARG = 11
LCHARG = .FALSE.
