bilayer graphene (AB stacking, 3.46A int
   2.46000000000000     
     0.8660000000000000   -0.5000000000000000    0.0000000000000000
     0.8660000000000000    0.5000000000000000    0.0000000000000000
     0.0000000000000000    0.0000000000000000   20.0000000000000000
   C 
     4
Direct
  0.0000000000000000  0.0000000000000000  0.0000000000000000
  0.6666999999999987  0.6666999999999987  0.0000000000000000
  0.0000000000000000  0.0000000000000000  0.0703251999999992
  0.3333000000000013  0.3333000000000013  0.0703251999999992
 
  0.00000000E+00  0.00000000E+00  0.00000000E+00
  0.00000000E+00  0.00000000E+00  0.00000000E+00
  0.00000000E+00  0.00000000E+00  0.00000000E+00
  0.00000000E+00  0.00000000E+00  0.00000000E+00
