NiO AFM
  4.08
 0.0  0.5  0.5
 0.5  0.5  0.0
 0.5  0.0  0.5
Au 
1 
Cartesian
0.0  0.0  0.0

