Fe bulk bcc                             
   2.73000000000000     
    -0.5002331466108697    0.5002331466108697    0.5002331466108697
     0.5002331466108697   -0.5002331466108697    0.5002331466108697
     0.5002331466108697    0.5002331466108697   -0.5002331466108697
   Fe
     1
Direct
 -0.0000000000000000  0.0000000000000000  0.0000000000000000
 
  0.00000000E+00  0.00000000E+00  0.00000000E+00
