10x10 Gamma-centered
0
Gamma
10  10  1
0   0   0
