Fe bulk fcc                             
   2.87000000000000     
    -0.0000000000000000    0.5601481553846112    0.5601481553846112
     0.5601481553846112    0.0000000000000000    0.5601481553846112
     0.5601481553846112    0.5601481553846112    0.0000000000000000
   Fe
     1
Direct
  0.0000000000000000 -0.0000000000000000 -0.0000000000000000
 
  0.00000000E+00  0.00000000E+00  0.00000000E+00
