Fe bulk fcc                             
   3.36000000000000     
     0.0000000000000000    0.4995827754223551    0.4995827754223551
     0.4995827754223551   -0.0000000000000000    0.4995827754223551
     0.4995827754223551    0.4995827754223551    0.0000000000000000
   Fe
     1
Direct
  0.0000000000000000 -0.0000000000000000 -0.0000000000000000
 
  0.00000000E+00  0.00000000E+00  0.00000000E+00
